81 91906
47 77 54 71 53 55 5 16 8 29 24 75 22 43 36 1 64 76 40 10 73 59 11 28 62 46 72 80 58 20 2 44 78 13 45 52 63 35 51 37 18 7 27 68 57 34 14 12 49 21 70 31 56 9 65 69 79 32 15 6 42 17 48 67 81 38 33 19 41 23 60 50 30 25 26 4 61 39 3 74 66 
